results/real/sos1/heuristic-primal/mar_34_382.in
Version identifier: 22.1.0.0 | 2022-03-09 | 1a383f8ce
CPXPARAM_Threads                                 1
CPXPARAM_MIP_Strategy_VariableSelect             3
CPXPARAM_TimeLimit                               598.46865553099997
1 of 1 MIP starts provided solutions.
MIP start 'm1' defined initial solution with objective 349.0000.
Tried aggregator 2 times.
MIP Presolve eliminated 46 rows and 782 columns.
MIP Presolve added 36 rows and 9 columns.
MIP Presolve modified 44 coefficients.
Aggregator did 9 substitutions.
Reduced MIP has 2668 rows, 4185 columns, and 108559 nonzeros.
Reduced MIP has 4185 binaries, 0 generals, 0 SOSs, and 0 indicators.
Presolve time = 0.14 sec. (209.68 ticks)
Probing time = 0.02 sec. (15.09 ticks)
Tried aggregator 1 time.
Detecting symmetries...
MIP Presolve modified 11 coefficients.
Reduced MIP has 2668 rows, 4185 columns, and 108690 nonzeros.
Reduced MIP has 4185 binaries, 0 generals, 0 SOSs, and 0 indicators.
Presolve time = 0.10 sec. (162.41 ticks)
Probing time = 0.02 sec. (15.10 ticks)
Clique table members: 1900.
MIP emphasis: balance optimality and feasibility.
MIP search method: dynamic search.
Parallel mode: none, using 1 thread.
Root relaxation solution time = 0.14 sec. (177.06 ticks)

        Nodes                                         Cuts/
   Node  Left     Objective  IInf  Best Integer    Best Bound    ItCnt     Gap

*     0+    0                          349.0000    66795.0000              --- 
      0     0      356.9772   618      349.0000      356.9772     1563    2.29%
      0     0      351.9911   706      349.0000       Cuts: 4     2043    0.86%
      0     0        cutoff            349.0000                   2129     --- 
Elapsed time = 1.58 sec. (1645.35 ticks, tree = 0.01 MB, solutions = 1)

Clique cuts applied:  1
Zero-half cuts applied:  1
Gomory fractional cuts applied:  2

Root node processing (before b&c):
  Real time             =    1.58 sec. (1645.83 ticks)
Sequential b&c:
  Real time             =    0.00 sec. (0.00 ticks)
                          ------------
Total (root+branch&cut) =    1.58 sec. (1645.83 ticks)
Primal:	349
Dual:	349
Status:	Optimal
Time:	1.59
Sequence:
	5
	0
	1
	4
	7
	9
	5
	4
	10
	9
	7
	4
	1
	9
	5
	0
	1
	4
	5
	0
	6
	9
	1
	9
	1
	9
	1
	9
	1
	9
	1
	9
	1
	9
	5
	9
	1
	4
	1
	4
	1
	9
	1
	0
	1
	9
	1
	9
	1
	9
	1
	9
	5
	0
	1
	4
	6
	9
	7
	9
	1
	9
	1
	2
	1
	9
	5
	0
	6
	9
	1
	4
	6
	9
	1
	9
	1
	9
	7
	4
	1
	4
	5
	9
	1
	4
	3
	9
	1
	9
	6
	4
	1
	9
	1
	9
	5
	9
	1
	4
	1
	9
	1
	9
	1
	4
	7
	2
	1
	9
	1
	9
	1
	4
	7
	9
	5
	9
	1
	9
	1
	4
	1
	9
	1
	9
	1
	9
	1
	9
	10
	9
	5
	9
	7
	4
	1
	9
	5
	9
	5
	9
	1
	9
	1
	0
	5
	9
	5
	4
	1
	0
	5
	9
	7
	0
	6
	9
	5
	9
	5
	9
	7
	9
	5
	4
	1
	4
	5
	0
	1
	9
	6
	9
	7
	9
	1
	9
	10
	9
	1
	9
	1
	2
	5
	4
	10
	9
	5
	9
	5
	0
	5
	4
	1
	9
	6
	9
	5
	9
	5
	9
	1
	4
	7
	9
	5
	9
	6
	0
	5
	9
	6
	9
	7
	9
	1
	9
	5
	9
	5
	9
	7
	9
	1
	0
	1
	9
	7
	9
	5
	9
	5
	9
	7
	4
	1
	4
	1
	9
	5
	4
	1
	4
	1
	9
	5
	9
	5
	4
	1
	2
	5
	9
	5
	9
	5
	9
	5
	9
	5
	9
	5
	9
	5
	9
	7
	0
	5
	9
	5
	9
	5
	9
	5
	9
	5
	9
	1
	9
	5
	9
	5
	0
	1
	9
	5
	9
	5
	4
	10
	9
	7
	0
	5
	9
	1
	9
	1
	9
	1
	9
	7
	9
	1
	9
	1
	9
	7
	9
	1
	9
	5
	9
	5
	9
	7
	9
	1
	9
	5
	9
	1
	9
	1
	9
	5
	9
	7
	9
	6
	9
	1
	9
	5
	9
	1
	9
	6
	9
	1
	9
	5
	0
	7
	9
	5
	9
	5
