results/real/sos1/heuristic-primal/mar_34_382.out
Version identifier: 22.1.0.0 | 2022-03-09 | 1a383f8ce
CPXPARAM_Threads                                 1
CPXPARAM_MIP_Strategy_VariableSelect             3
CPXPARAM_TimeLimit                               598.46865196299996
1 of 1 MIP starts provided solutions.
MIP start 'm1' defined initial solution with objective 349.0000.
Tried aggregator 1 time.
MIP Presolve eliminated 18 rows and 764 columns.
MIP Presolve modified 43 coefficients.
Reduced MIP has 2669 rows, 4202 columns, and 109067 nonzeros.
Reduced MIP has 4202 binaries, 0 generals, 0 SOSs, and 0 indicators.
Presolve time = 0.12 sec. (172.85 ticks)
Probing time = 0.02 sec. (15.16 ticks)
Tried aggregator 1 time.
Detecting symmetries...
MIP Presolve modified 12 coefficients.
Reduced MIP has 2669 rows, 4202 columns, and 109208 nonzeros.
Reduced MIP has 4202 binaries, 0 generals, 0 SOSs, and 0 indicators.
Presolve time = 0.11 sec. (164.16 ticks)
Probing time = 0.02 sec. (15.16 ticks)
Clique table members: 1901.
MIP emphasis: balance optimality and feasibility.
MIP search method: dynamic search.
Parallel mode: none, using 1 thread.
Root relaxation solution time = 0.21 sec. (239.92 ticks)

        Nodes                                         Cuts/
   Node  Left     Objective  IInf  Best Integer    Best Bound    ItCnt     Gap

*     0+    0                          349.0000    73153.0000              --- 
      0     0      365.0000   821      349.0000      365.0000     1745    4.58%
      0     0      356.0000   513      349.0000      Fract: 1     2358    2.01%
      0     0      352.0000   672      349.0000      Fract: 4     2697    0.86%
      0     0      350.0000   668      349.0000      Cuts: 16     2778    0.29%
      0     0        cutoff            349.0000                   2780     --- 
Elapsed time = 2.32 sec. (2239.43 ticks, tree = 0.01 MB, solutions = 1)

Clique cuts applied:  1
Zero-half cuts applied:  11

Root node processing (before b&c):
  Real time             =    2.32 sec. (2239.56 ticks)
Sequential b&c:
  Real time             =    0.00 sec. (0.00 ticks)
                          ------------
Total (root+branch&cut) =    2.32 sec. (2239.56 ticks)
Primal:	349
Dual:	349
Status:	Optimal
Time:	2.37
Sequence:
	5
	0
	1
	4
	7
	9
	5
	4
	10
	9
	7
	4
	1
	9
	5
	0
	1
	4
	5
	0
	6
	9
	1
	9
	1
	9
	1
	9
	1
	9
	1
	9
	1
	9
	5
	9
	1
	4
	1
	4
	1
	9
	1
	0
	1
	9
	1
	9
	1
	9
	1
	9
	5
	0
	1
	4
	6
	9
	7
	9
	1
	9
	1
	2
	1
	9
	5
	0
	6
	9
	1
	4
	6
	9
	1
	9
	1
	9
	7
	4
	1
	4
	5
	9
	1
	4
	3
	9
	1
	9
	6
	4
	1
	9
	1
	9
	5
	9
	1
	4
	1
	9
	1
	9
	1
	4
	7
	2
	1
	9
	1
	9
	1
	4
	7
	9
	5
	9
	1
	9
	1
	4
	1
	9
	1
	9
	1
	9
	1
	9
	10
	9
	5
	9
	7
	4
	1
	9
	5
	9
	5
	9
	1
	9
	1
	0
	5
	9
	5
	4
	1
	0
	5
	9
	7
	0
	6
	9
	5
	9
	5
	9
	7
	9
	5
	4
	1
	4
	5
	0
	1
	9
	6
	9
	7
	9
	1
	9
	10
	9
	1
	9
	1
	2
	5
	4
	10
	9
	5
	9
	5
	0
	5
	4
	1
	9
	6
	9
	5
	9
	5
	9
	1
	4
	7
	9
	5
	9
	6
	0
	5
	9
	6
	9
	7
	9
	1
	9
	5
	9
	5
	9
	7
	9
	1
	0
	1
	9
	7
	9
	5
	9
	5
	9
	7
	4
	1
	4
	1
	9
	5
	4
	1
	4
	1
	9
	5
	9
	5
	4
	1
	2
	5
	9
	5
	9
	5
	9
	5
	9
	5
	9
	5
	9
	5
	9
	7
	0
	5
	9
	5
	9
	5
	9
	5
	9
	5
	9
	1
	9
	5
	9
	5
	0
	1
	9
	5
	9
	5
	4
	10
	9
	7
	0
	5
	9
	1
	9
	1
	9
	1
	9
	7
	9
	1
	9
	1
	9
	7
	9
	1
	9
	5
	9
	5
	9
	7
	9
	1
	9
	5
	9
	1
	9
	1
	9
	5
	9
	7
	9
	6
	9
	1
	9
	5
	9
	1
	9
	6
	9
	1
	9
	5
	0
	7
	9
	5
	9
	5
